2915.70 0
0 152 6 188 53 198 192 90 199 197 1 196 193 0
0 30 157 2 16 182 183 185 190 184 136 195 0
0 56 135 163 189 165 164 170 167 166 173 171 139 0
0 168 119 133 35 153 121 156 158 160 147 148 162 0
0 126 176 70 179 138 155 140 141 142 137 143 144 74 25 187 0
0 105 86 64 122 174 120 125 127 132 10 131 129 169 0
0 117 107 118 110 109 108 111 112 114 113 115 104 159 0
0 98 79 124 103 94 101 93 91 89 96 95 106 97 100 102 99 0
0 81 80 77 85 84 180 19 128 83 20 37 88 36 0
0 65 78 69 71 75 72 146 73 63 67 68 15 123 0
0 54 59 172 82 28 151 55 161 38 52 150 60 0
0 44 40 51 46 45 154 47 48 42 43 116 0
0 24 32 31 57 39 50 149 177 13 58 34 87 0
0 17 26 27 29 5 21 186 22 41 61 0
0 7 14 134 11 12 76 191 23 62 49 145 92 18 181 0
0 33 194 66 4 175 8 178 130 9 3 0